NAME : traveling-santa-2018-prime-paths.30553.tour
COMMENT : Length = 30553
COMMENT : Found by LKH [Keld Helsgaun] Sun Jun 12 19:59:57 2022
TYPE : TOUR
DIMENSION : 100
TOUR_SECTION
1
4
85
90
84
42
80
12
11
67
29
69
27
95
66
39
94
25
21
73
62
93
97
58
6
9
47
8
49
32
45
40
34
31
99
2
96
92
15
61
53
77
38
50
89
83
68
35
41
48
46
20
78
26
23
7
65
81
98
33
87
75
59
5
76
52
51
86
63
3
55
91
88
64
18
28
37
13
43
17
36
16
54
24
79
56
14
72
30
100
82
71
44
74
22
10
57
60
70
19
-1
EOF
